(declare-const in6 Int)
(declare-const in5 Int)
(declare-const in8 Int)
(declare-const in7 Int)
(declare-const t Int)
(declare-const in9 Int)
(declare-const in0 Int)
(declare-const in2 Int)
(declare-const in1 Int)
(declare-const in4 Int)
(declare-const in3 Int)

(assert (and (and (and (and (and (and (and (and (and (and (and (and (and (and (and (and (and (and (and (and (and (and (and (and (and (and (and (and (and (and (and (and (and (and (and (and (and (and (and (and (and (and (and (and (and (and (and (and (and (and (and (and (and (and (and (and (and (and (and (and (and (and (and (and (and (and (and (and (and (and (and (and (and (and (and (and  ( >=  in0 -10)  ( <=  in0 10))  ( >=  in1 -10))  ( <=  in1 10))  ( >=  in2 -10))  ( <=  in2 10))  ( >=  in3 -10))  ( <=  in3 10))  ( >=  in4 -10))  ( <=  in4 10))  ( >=  in5 -10))  ( <=  in5 10))  ( >=  in6 -10))  ( <=  in6 10))  ( >=  in7 -10))  ( <=  in7 10))  ( >=  in8 -10))  ( <=  in8 10))  ( >=  in9 -10))  ( <=  in9 10))  ( >=  t -100))  ( <=  t 100)) (not ( = in0 t))) (not ( = ( +  in1 in0) t))) (not ( = ( +  in2 ( +  in1 in0)) t))) (not ( = ( +  in3 ( +  in2 ( +  in1 in0))) t))) (not ( = ( +  in4 ( +  in3 ( +  in2 ( +  in1 in0)))) t))) (not ( = ( +  in5 ( +  in4 ( +  in3 ( +  in2 ( +  in1 in0))))) t))) (not ( = ( +  in6 ( +  in5 ( +  in4 ( +  in3 ( +  in2 ( +  in1 in0)))))) t))) (not ( = ( +  in7 ( +  in6 ( +  in5 ( +  in4 ( +  in3 ( +  in2 ( +  in1 in0))))))) t))) (not ( = ( +  in8 ( +  in7 ( +  in6 ( +  in5 ( +  in4 ( +  in3 ( +  in2 ( +  in1 in0)))))))) t))) (not ( = ( +  in9 ( +  in8 ( +  in7 ( +  in6 ( +  in5 ( +  in4 ( +  in3 ( +  in2 ( +  in1 in0))))))))) t))) (not ( = in1 t))) (not ( = ( +  in2 in1) t))) (not ( = ( +  in3 ( +  in2 in1)) t))) (not ( = ( +  in4 ( +  in3 ( +  in2 in1))) t))) (not ( = ( +  in5 ( +  in4 ( +  in3 ( +  in2 in1)))) t))) (not ( = ( +  in6 ( +  in5 ( +  in4 ( +  in3 ( +  in2 in1))))) t))) (not ( = ( +  in7 ( +  in6 ( +  in5 ( +  in4 ( +  in3 ( +  in2 in1)))))) t))) (not ( = ( +  in8 ( +  in7 ( +  in6 ( +  in5 ( +  in4 ( +  in3 ( +  in2 in1))))))) t))) (not ( = ( +  in9 ( +  in8 ( +  in7 ( +  in6 ( +  in5 ( +  in4 ( +  in3 ( +  in2 in1)))))))) t))) (not ( = in2 t))) (not ( = ( +  in3 in2) t))) (not ( = ( +  in4 ( +  in3 in2)) t))) (not ( = ( +  in5 ( +  in4 ( +  in3 in2))) t))) (not ( = ( +  in6 ( +  in5 ( +  in4 ( +  in3 in2)))) t))) (not ( = ( +  in7 ( +  in6 ( +  in5 ( +  in4 ( +  in3 in2))))) t))) (not ( = ( +  in8 ( +  in7 ( +  in6 ( +  in5 ( +  in4 ( +  in3 in2)))))) t))) (not ( = ( +  in9 ( +  in8 ( +  in7 ( +  in6 ( +  in5 ( +  in4 ( +  in3 in2))))))) t))) (not ( = in3 t))) (not ( = ( +  in4 in3) t))) (not ( = ( +  in5 ( +  in4 in3)) t))) (not ( = ( +  in6 ( +  in5 ( +  in4 in3))) t))) (not ( = ( +  in7 ( +  in6 ( +  in5 ( +  in4 in3)))) t))) (not ( = ( +  in8 ( +  in7 ( +  in6 ( +  in5 ( +  in4 in3))))) t))) (not ( = ( +  in9 ( +  in8 ( +  in7 ( +  in6 ( +  in5 ( +  in4 in3)))))) t))) (not ( = in4 t))) (not ( = ( +  in5 in4) t))) (not ( = ( +  in6 ( +  in5 in4)) t))) (not ( = ( +  in7 ( +  in6 ( +  in5 in4))) t))) (not ( = ( +  in8 ( +  in7 ( +  in6 ( +  in5 in4)))) t))) (not ( = ( +  in9 ( +  in8 ( +  in7 ( +  in6 ( +  in5 in4))))) t))) (not ( = in5 t))) (not ( = ( +  in6 in5) t))) (not ( = ( +  in7 ( +  in6 in5)) t))) (not ( = ( +  in8 ( +  in7 ( +  in6 in5))) t))) (not ( = ( +  in9 ( +  in8 ( +  in7 ( +  in6 in5)))) t))) (not ( = in6 t))) (not ( = ( +  in7 in6) t))) (not ( = ( +  in8 ( +  in7 in6)) t))) (not ( = ( +  in9 ( +  in8 ( +  in7 in6))) t))) (not ( = in7 t))) (not ( = ( +  in8 in7) t))) (not ( = ( +  in9 ( +  in8 in7)) t))) (not ( = in8 t))) (not ( = ( +  in9 in8) t))) (not ( = in9 t))))

(check-sat)
(get-model)